p tw 280 4201 7 
1 8 
1 11 
2 9 
2 10 
2 12 
3 7 
3 10 
3 141 
4 8 
4 9 
4 142 
5 7 
5 9 
5 171 
6 8 
6 10 
6 172 
11 17 
11 18 
12 19 
12 20 
13 17 
13 20 
13 41 
14 18 
14 19 
14 42 
15 17 
15 19 
15 111 
16 18 
16 20 
16 112 
21 27 
21 28 
21 81 
22 29 
22 30 
22 82 
23 27 
23 30 
23 131 
24 28 
24 29 
24 132 
25 27 
25 29 
25 173 
26 28 
26 30 
26 174 
31 37 
31 38 
31 51 
32 39 
32 40 
32 52 
33 37 
33 40 
33 121 
34 38 
34 39 
34 122 
35 37 
35 39 
35 161 
36 38 
36 40 
36 162 
41 47 
41 48 
42 49 
42 50 
43 47 
43 50 
43 61 
44 48 
44 49 
44 62 
45 47 
45 49 
45 151 
46 48 
46 50 
46 152 
51 57 
51 58 
52 59 
52 60 
53 57 
53 60 
53 91 
54 58 
54 59 
54 92 
55 57 
55 59 
55 101 
56 58 
56 60 
56 102 
61 67 
61 68 
62 69 
62 70 
63 67 
63 70 
63 83 
64 68 
64 69 
64 84 
65 67 
65 69 
65 163 
66 68 
66 70 
66 164 
71 77 
71 78 
71 181 
72 79 
72 80 
72 182 
73 77 
73 80 
73 191 
74 78 
74 79 
74 192 
75 77 
75 79 
75 211 
76 78 
76 80 
76 212 
81 87 
81 88 
82 89 
82 90 
83 87 
83 90 
84 88 
84 89 
85 87 
85 89 
85 241 
86 88 
86 90 
86 242 
91 97 
91 98 
92 99 
92 100 
93 97 
93 100 
93 213 
94 98 
94 99 
94 214 
95 97 
95 99 
95 221 
96 98 
96 100 
96 222 
101 107 
101 108 
102 109 
102 110 
103 107 
103 110 
103 243 
104 108 
104 109 
104 244 
105 107 
105 109 
105 271 
106 108 
106 110 
106 272 
111 117 
111 118 
112 119 
112 120 
113 117 
113 120 
113 123 
114 118 
114 119 
114 124 
115 117 
115 119 
115 261 
116 118 
116 120 
116 262 
121 127 
121 128 
122 129 
122 130 
123 127 
123 130 
124 128 
124 129 
125 127 
125 129 
125 263 
126 128 
126 130 
126 264 
131 137 
131 138 
132 139 
132 140 
133 137 
133 140 
133 201 
134 138 
134 139 
134 202 
135 137 
135 139 
135 273 
136 138 
136 140 
136 274 
141 147 
141 148 
142 149 
142 150 
143 147 
143 150 
143 251 
144 148 
144 149 
144 252 
145 147 
145 149 
145 265 
146 148 
146 150 
146 266 
151 157 
151 158 
152 159 
152 160 
153 157 
153 160 
153 223 
154 158 
154 159 
154 224 
155 157 
155 159 
155 253 
156 158 
156 160 
156 254 
161 167 
161 168 
162 169 
162 170 
163 167 
163 170 
164 168 
164 169 
165 167 
165 169 
165 183 
166 168 
166 170 
166 184 
171 177 
171 178 
172 179 
172 180 
173 177 
173 180 
174 178 
174 179 
175 177 
175 179 
175 231 
176 178 
176 180 
176 232 
181 187 
181 188 
182 189 
182 190 
183 187 
183 190 
184 188 
184 189 
185 187 
185 189 
185 225 
186 188 
186 190 
186 226 
191 197 
191 198 
192 199 
192 200 
193 197 
193 200 
193 245 
194 198 
194 199 
194 246 
195 197 
195 199 
195 275 
196 198 
196 200 
196 276 
201 207 
201 208 
202 209 
202 210 
203 207 
203 210 
203 233 
204 208 
204 209 
204 234 
205 207 
205 209 
205 255 
206 208 
206 210 
206 256 
211 217 
211 218 
212 219 
212 220 
213 217 
213 220 
214 218 
214 219 
215 217 
215 219 
215 235 
216 218 
216 220 
216 236 
221 227 
221 228 
222 229 
222 230 
223 227 
223 230 
224 228 
224 229 
225 227 
225 229 
226 228 
226 230 
231 237 
231 238 
232 239 
232 240 
233 237 
233 240 
234 238 
234 239 
235 237 
235 239 
236 238 
236 240 
241 247 
241 248 
242 249 
242 250 
243 247 
243 250 
244 248 
244 249 
245 247 
245 249 
246 248 
246 250 
251 257 
251 258 
252 259 
252 260 
253 257 
253 260 
254 258 
254 259 
255 257 
255 259 
256 258 
256 260 
261 267 
261 268 
262 269 
262 270 
263 267 
263 270 
264 268 
264 269 
265 267 
265 269 
266 268 
266 270 
271 277 
271 278 
272 279 
272 280 
273 277 
273 280 
274 278 
274 279 
275 277 
275 279 
276 278 
276 280 
